p edge	87	726
e	1	2
e	1	3
e	1	4
e	1	5
e	1	6
e	1	24
e	1	28
e	1	30
e	1	32
e	1	33
e	1	34
e	1	35
e	1	36
e	1	48
e	1	54
e	1	57
e	1	60
e	1	65
e	1	66
e	1	86
e	2	3
e	2	4
e	2	5
e	2	6
e	2	24
e	2	25
e	2	27
e	2	28
e	2	29
e	2	30
e	2	32
e	2	33
e	2	34
e	2	35
e	2	36
e	2	48
e	2	54
e	2	57
e	2	60
e	2	65
e	2	67
e	2	87
e	3	4
e	3	5
e	3	6
e	3	7
e	3	8
e	3	21
e	3	22
e	3	23
e	3	28
e	3	32
e	3	34
e	3	35
e	3	36
e	3	48
e	3	54
e	3	57
e	3	60
e	3	61
e	3	65
e	3	66
e	3	67
e	3	68
e	3	86
e	4	5
e	4	6
e	4	7
e	4	8
e	4	21
e	4	22
e	4	23
e	4	24
e	4	27
e	4	28
e	4	30
e	4	32
e	4	33
e	4	34
e	4	35
e	4	36
e	4	39
e	4	45
e	4	48
e	4	51
e	4	54
e	4	57
e	4	60
e	4	61
e	4	65
e	4	66
e	4	67
e	4	69
e	5	6
e	5	7
e	5	8
e	5	9
e	5	10
e	5	13
e	5	21
e	5	22
e	5	23
e	5	28
e	5	34
e	5	36
e	5	48
e	5	54
e	5	57
e	5	61
e	5	65
e	5	66
e	5	67
e	5	68
e	5	69
e	5	70
e	6	7
e	6	8
e	6	9
e	6	10
e	6	21
e	6	22
e	6	23
e	6	28
e	6	30
e	6	35
e	6	36
e	6	45
e	6	48
e	6	54
e	6	57
e	6	61
e	6	65
e	6	66
e	6	67
e	6	68
e	6	69
e	6	71
e	6	82
e	6	83
e	6	84
e	7	8
e	7	9
e	7	10
e	7	11
e	7	12
e	7	21
e	7	22
e	7	23
e	7	57
e	7	61
e	7	62
e	7	66
e	7	67
e	7	68
e	7	69
e	7	70
e	7	71
e	7	72
e	8	9
e	8	10
e	8	11
e	8	12
e	8	21
e	8	22
e	8	23
e	8	37
e	8	48
e	8	49
e	8	55
e	8	61
e	8	62
e	8	65
e	8	66
e	8	67
e	8	68
e	8	69
e	8	70
e	8	71
e	8	73
e	9	10
e	9	11
e	9	12
e	9	13
e	9	14
e	9	22
e	9	23
e	9	37
e	9	49
e	9	55
e	9	62
e	9	66
e	9	68
e	9	69
e	9	70
e	9	71
e	9	72
e	9	73
e	9	74
e	10	11
e	10	12
e	10	13
e	10	14
e	10	23
e	10	37
e	10	40
e	10	46
e	10	49
e	10	52
e	10	55
e	10	62
e	10	67
e	10	68
e	10	69
e	10	70
e	10	71
e	10	72
e	10	73
e	10	75
e	10	84
e	11	12
e	11	13
e	11	14
e	11	15
e	11	16
e	11	23
e	11	49
e	11	62
e	11	63
e	11	68
e	11	70
e	11	71
e	11	72
e	11	73
e	11	74
e	11	75
e	11	76
e	12	13
e	12	14
e	12	15
e	12	16
e	12	23
e	12	37
e	12	46
e	12	49
e	12	55
e	12	62
e	12	63
e	12	69
e	12	70
e	12	71
e	12	72
e	12	73
e	12	74
e	12	75
e	12	77
e	13	14
e	13	15
e	13	16
e	13	17
e	13	18
e	13	22
e	13	23
e	13	49
e	13	63
e	13	70
e	13	72
e	13	73
e	13	74
e	13	75
e	13	76
e	13	77
e	13	78
e	14	15
e	14	16
e	14	17
e	14	18
e	14	23
e	14	49
e	14	63
e	14	71
e	14	72
e	14	73
e	14	74
e	14	75
e	14	76
e	14	77
e	14	79
e	14	84
e	15	16
e	15	17
e	15	18
e	15	19
e	15	20
e	15	23
e	15	63
e	15	64
e	15	72
e	15	74
e	15	75
e	15	76
e	15	77
e	15	78
e	15	79
e	15	80
e	16	17
e	16	18
e	16	19
e	16	20
e	16	23
e	16	38
e	16	50
e	16	56
e	16	63
e	16	64
e	16	73
e	16	74
e	16	75
e	16	76
e	16	77
e	16	78
e	16	79
e	16	81
e	17	18
e	17	19
e	17	20
e	17	38
e	17	50
e	17	56
e	17	64
e	17	74
e	17	76
e	17	77
e	17	78
e	17	79
e	17	80
e	17	81
e	18	19
e	18	20
e	18	38
e	18	41
e	18	47
e	18	50
e	18	53
e	18	56
e	18	64
e	18	76
e	18	77
e	18	78
e	18	79
e	18	80
e	18	81
e	19	20
e	19	50
e	19	64
e	19	76
e	19	78
e	19	79
e	19	80
e	19	81
e	20	38
e	20	47
e	20	50
e	20	56
e	20	64
e	20	78
e	20	79
e	20	80
e	20	81
e	21	22
e	21	23
e	21	61
e	21	66
e	22	23
e	22	61
e	22	66
e	23	61
e	23	62
e	23	63
e	23	66
e	23	70
e	23	74
e	24	25
e	24	26
e	24	27
e	24	28
e	24	29
e	24	30
e	24	33
e	24	35
e	24	60
e	24	65
e	25	26
e	25	27
e	25	28
e	25	29
e	25	30
e	25	31
e	26	27
e	26	28
e	26	29
e	26	30
e	26	31
e	27	28
e	27	29
e	27	30
e	27	31
e	27	65
e	28	29
e	28	30
e	28	33
e	28	35
e	28	36
e	28	48
e	28	54
e	28	57
e	28	60
e	28	65
e	28	67
e	29	30
e	29	31
e	29	35
e	29	65
e	30	33
e	30	34
e	30	35
e	30	54
e	30	57
e	30	60
e	30	65
e	30	67
e	30	87
e	32	34
e	32	60
e	33	35
e	33	60
e	33	65
e	34	35
e	34	57
e	34	60
e	34	65
e	34	66
e	34	67
e	34	86
e	34	87
e	35	54
e	35	57
e	35	60
e	35	65
e	35	66
e	35	67
e	35	86
e	35	87
e	36	39
e	36	42
e	36	45
e	36	48
e	36	51
e	36	54
e	36	65
e	36	67
e	37	40
e	37	43
e	37	46
e	37	49
e	37	52
e	37	55
e	37	62
e	37	69
e	37	71
e	37	73
e	38	41
e	38	44
e	38	47
e	38	50
e	38	53
e	38	56
e	38	64
e	38	79
e	38	81
e	39	42
e	39	45
e	39	48
e	39	51
e	39	54
e	39	85
e	40	43
e	40	46
e	40	49
e	40	52
e	40	55
e	40	58
e	41	44
e	41	47
e	41	50
e	41	53
e	41	56
e	41	59
e	42	45
e	42	48
e	42	51
e	42	54
e	42	85
e	43	46
e	43	49
e	43	52
e	43	55
e	43	58
e	44	47
e	44	50
e	44	53
e	44	56
e	44	59
e	45	48
e	45	51
e	45	54
e	45	67
e	45	85
e	46	49
e	46	52
e	46	55
e	46	58
e	46	73
e	47	50
e	47	53
e	47	56
e	47	59
e	47	81
e	48	51
e	48	54
e	48	57
e	48	61
e	48	65
e	48	66
e	48	67
e	48	68
e	48	69
e	48	82
e	48	83
e	48	84
e	49	52
e	49	55
e	49	62
e	49	69
e	49	71
e	49	72
e	49	73
e	49	75
e	50	53
e	50	56
e	50	64
e	50	79
e	50	80
e	50	81
e	51	54
e	51	65
e	51	67
e	51	85
e	52	55
e	52	58
e	52	71
e	53	56
e	53	59
e	53	79
e	53	81
e	54	57
e	54	61
e	54	65
e	54	66
e	54	67
e	54	68
e	54	69
e	54	82
e	54	83
e	54	84
e	55	62
e	55	68
e	55	69
e	55	70
e	55	71
e	55	72
e	55	73
e	55	84
e	56	64
e	56	76
e	56	77
e	56	78
e	56	79
e	56	80
e	56	81
e	57	60
e	57	61
e	57	65
e	57	66
e	57	67
e	57	68
e	57	69
e	57	82
e	57	83
e	57	84
e	57	86
e	57	87
e	60	65
e	60	86
e	60	87
e	61	65
e	61	66
e	61	67
e	61	68
e	61	69
e	61	82
e	61	83
e	61	84
e	62	68
e	62	69
e	62	70
e	62	71
e	62	72
e	62	73
e	62	84
e	63	72
e	63	73
e	63	74
e	63	75
e	63	76
e	63	77
e	63	84
e	64	76
e	64	77
e	64	78
e	64	79
e	64	80
e	64	81
e	65	66
e	65	67
e	65	68
e	65	69
e	65	82
e	65	83
e	65	84
e	65	87
e	66	67
e	66	68
e	66	69
e	66	70
e	66	71
e	66	82
e	66	83
e	66	84
e	67	68
e	67	69
e	67	70
e	67	71
e	67	75
e	67	82
e	67	83
e	67	84
e	68	69
e	68	70
e	68	71
e	68	72
e	68	73
e	68	82
e	68	83
e	68	84
e	69	70
e	69	71
e	69	72
e	69	73
e	69	82
e	69	83
e	69	84
e	70	71
e	70	72
e	70	73
e	70	74
e	70	75
e	70	84
e	71	72
e	71	73
e	71	74
e	71	75
e	71	83
e	71	84
e	72	73
e	72	74
e	72	75
e	72	76
e	72	77
e	72	84
e	73	74
e	73	75
e	73	76
e	73	77
e	73	84
e	74	75
e	74	76
e	74	77
e	74	78
e	74	79
e	74	84
e	75	76
e	75	77
e	75	78
e	75	79
e	75	83
e	75	84
e	76	77
e	76	78
e	76	79
e	76	80
e	76	81
e	76	84
e	77	78
e	77	79
e	77	80
e	77	81
e	77	84
e	78	79
e	78	80
e	78	81
e	79	80
e	79	81
e	80	81
e	82	83
e	82	84
e	83	84
